\ Model idol-model
\ LP format - for model browsing. Use MPS format to capture full model detail.
\ Signature: 0x6bab914d07ec76ce
Minimize
  a_1 + a_3 + a_5 + a_6 + a_7 + a_9 + a_10 + a_11 + a_12 + a_13 + a_14
   + a_15 + a_16 + a_17 + a_18 + a_19 + a_20 + a_21 + a_22 + a_23 + a_24
   + a_25 + a_26 + a_27 + a_28 + a_29 + a_30 + a_31 + a_32 + a_33 + a_34
   + a_35 + a_36 + a_37 + a_38 + a_39 + a_40 + a_41 + a_42 + a_43 + a_44
   + a_45 + a_46 + a_47 + a_48 + a_49 + a_50
Subject To
 Phi: y_1 + y_3 + y_5 + y_6 + y_7 + y_9 + y_10 + y_11 + y_12 + y_13 + y_14
   + y_15 + y_16 + y_17 + y_18 + y_19 + y_20 + y_21 + y_22 + y_23 + y_24
   + y_25 + y_26 + y_27 + y_28 + y_29 + y_30 + y_31 + y_32 + y_33 + y_34
   + y_35 + y_36 + y_37 + y_38 + y_39 + y_40 + y_41 + y_42 + y_43 + y_44
   + y_45 + y_46 + y_47 + y_48 + y_49 + y_50 <= 3
 Lambda: x_1 + x_3 + x_5 + x_6 + x_7 + x_9 + x_10 + x_11 + x_12 + x_13
   + x_14 + x_15 + x_16 + x_17 + x_18 + x_19 + x_20 + x_21 + x_22 + x_23
   + x_24 + x_25 + x_26 + x_27 + x_28 + x_29 + x_30 + x_31 + x_32 + x_33
   + x_34 + x_35 + x_36 + x_37 + x_38 + x_39 + x_40 + x_41 + x_42 + x_43
   + x_44 + x_45 + x_46 + x_47 + x_48 + x_49 + x_50 <= 1
 V1: a_1 + y_1 <= 1
 V3: a_3 + y_3 <= 1
 V5: a_5 + y_5 <= 1
 V6: a_6 + y_6 <= 1
 V7: a_7 + y_7 <= 1
 V9: a_9 + y_9 <= 1
 V10: a_10 + y_10 <= 1
 V11: a_11 + y_11 <= 1
 V12: a_12 + y_12 <= 1
 V13: a_13 + y_13 <= 1
 V14: a_14 + y_14 <= 1
 V15: a_15 + y_15 <= 1
 V16: a_16 + y_16 <= 1
 V17: a_17 + y_17 <= 1
 V18: a_18 + y_18 <= 1
 V19: a_19 + y_19 <= 1
 V20: a_20 + y_20 <= 1
 V21: a_21 + y_21 <= 1
 V22: a_22 + y_22 <= 1
 V23: a_23 + y_23 <= 1
 V24: a_24 + y_24 <= 1
 V25: a_25 + y_25 <= 1
 V26: a_26 + y_26 <= 1
 V27: a_27 + y_27 <= 1
 V28: a_28 + y_28 <= 1
 V29: a_29 + y_29 <= 1
 V30: a_30 + y_30 <= 1
 V31: a_31 + y_31 <= 1
 V32: a_32 + y_32 <= 1
 V33: a_33 + y_33 <= 1
 V34: a_34 + y_34 <= 1
 V35: a_35 + y_35 <= 1
 V36: a_36 + y_36 <= 1
 V37: a_37 + y_37 <= 1
 V38: a_38 + y_38 <= 1
 V39: a_39 + y_39 <= 1
 V40: a_40 + y_40 <= 1
 V41: a_41 + y_41 <= 1
 V42: a_42 + y_42 <= 1
 V43: a_43 + y_43 <= 1
 V44: a_44 + y_44 <= 1
 V45: a_45 + y_45 <= 1
 V46: a_46 + y_46 <= 1
 V47: a_47 + y_47 <= 1
 V48: a_48 + y_48 <= 1
 V49: a_49 + y_49 <= 1
 V50: a_50 + y_50 <= 1
 A3-1: a_1 - a_3 - x_1 <= 0
 A1-3: - a_1 + a_3 - x_3 <= 0
 A6-5: a_5 - a_6 - x_5 <= 0
 A5-6: - a_5 + a_6 - x_6 <= 0
 A7-1: a_1 - a_7 - x_1 <= 0
 A1-7: - a_1 + a_7 - x_7 <= 0
 A10-7: a_7 - a_10 - x_7 <= 0
 A7-10: - a_7 + a_10 - x_10 <= 0
 A12-9: a_9 - a_12 - x_9 <= 0
 A9-12: - a_9 + a_12 - x_12 <= 0
 A14-3: a_3 - a_14 - x_3 <= 0
 A3-14: - a_3 + a_14 - x_14 <= 0
 A18-6: a_6 - a_18 - x_6 <= 0
 A6-18: - a_6 + a_18 - x_18 <= 0
 A19-11: a_11 - a_19 - x_11 <= 0
 A11-19: - a_11 + a_19 - x_19 <= 0
 A20-17: a_17 - a_20 - x_17 <= 0
 A17-20: - a_17 + a_20 - x_20 <= 0
 A21-13: a_13 - a_21 - x_13 <= 0
 A13-21: - a_13 + a_21 - x_21 <= 0
 A23-19: a_19 - a_23 - x_19 <= 0
 A19-23: - a_19 + a_23 - x_23 <= 0
 A25-17: a_17 - a_25 - x_17 <= 0
 A17-25: - a_17 + a_25 - x_25 <= 0
 A26-16: a_16 - a_26 - x_16 <= 0
 A16-26: - a_16 + a_26 - x_26 <= 0
 A28-23: a_23 - a_28 - x_23 <= 0
 A23-28: - a_23 + a_28 - x_28 <= 0
 A29-16: a_16 - a_29 - x_16 <= 0
 A16-29: - a_16 + a_29 - x_29 <= 0
 A30-19: a_19 - a_30 - x_19 <= 0
 A19-30: - a_19 + a_30 - x_30 <= 0
 A31-29: a_29 - a_31 - x_29 <= 0
 A29-31: - a_29 + a_31 - x_31 <= 0
 A32-16: a_16 - a_32 - x_16 <= 0
 A16-32: - a_16 + a_32 - x_32 <= 0
 A33-18: a_18 - a_33 - x_18 <= 0
 A18-33: - a_18 + a_33 - x_33 <= 0
 A34-22: a_22 - a_34 - x_22 <= 0
 A22-34: - a_22 + a_34 - x_34 <= 0
 A35-30: a_30 - a_35 - x_30 <= 0
 A30-35: - a_30 + a_35 - x_35 <= 0
 A36-15: a_15 - a_36 - x_15 <= 0
 A15-36: - a_15 + a_36 - x_36 <= 0
 A37-30: a_30 - a_37 - x_30 <= 0
 A30-37: - a_30 + a_37 - x_37 <= 0
 A38-23: a_23 - a_38 - x_23 <= 0
 A23-38: - a_23 + a_38 - x_38 <= 0
 A39-5: a_5 - a_39 - x_5 <= 0
 A5-39: - a_5 + a_39 - x_39 <= 0
 A41-21: a_21 - a_41 - x_21 <= 0
 A21-41: - a_21 + a_41 - x_41 <= 0
 A42-11: a_11 - a_42 - x_11 <= 0
 A11-42: - a_11 + a_42 - x_42 <= 0
 A44-22: a_22 - a_44 - x_22 <= 0
 A22-44: - a_22 + a_44 - x_44 <= 0
 A45-9: a_9 - a_45 - x_9 <= 0
 A9-45: - a_9 + a_45 - x_45 <= 0
 A46-13: a_13 - a_46 - x_13 <= 0
 A13-46: - a_13 + a_46 - x_46 <= 0
 A47-25: a_25 - a_47 - x_25 <= 0
 A25-47: - a_25 + a_47 - x_47 <= 0
 A48-22: a_22 - a_48 - x_22 <= 0
 A22-48: - a_22 + a_48 - x_48 <= 0
 A49-31: a_31 - a_49 - x_31 <= 0
 A31-49: - a_31 + a_49 - x_49 <= 0
 A50-41: a_41 - a_50 - x_41 <= 0
 A41-50: - a_41 + a_50 - x_50 <= 0
 c_352: - a_1 - a_3 - a_5 - a_6 - a_7 - a_9 - a_10 - a_11 - a_12 - a_13
   - a_14 - a_15 - a_16 - a_17 - a_18 - a_19 - a_20 - a_21 - a_22 - a_23
   - a_24 - a_25 - a_26 - a_27 - a_28 - a_29 - a_30 - a_31 - a_32 - a_33
   - a_34 - a_35 - a_36 - a_37 - a_38 - a_39 - a_40 - a_41 - a_42 - a_43
   - a_44 - a_45 - a_46 - a_47 - a_48 - a_49 - a_50 <= 0
Bounds
Binaries
 a_1 a_3 a_5 a_6 a_7 a_9 a_10 a_11 a_12 a_13 a_14 a_15 a_16 a_17 a_18 a_19
 a_20 a_21 a_22 a_23 a_24 a_25 a_26 a_27 a_28 a_29 a_30 a_31 a_32 a_33 a_34
 a_35 a_36 a_37 a_38 a_39 a_40 a_41 a_42 a_43 a_44 a_45 a_46 a_47 a_48 a_49
 a_50 y_1 y_3 y_5 y_6 y_7 y_9 y_10 y_11 y_12 y_13 y_14 y_15 y_16 y_17 y_18
 y_19 y_20 y_21 y_22 y_23 y_24 y_25 y_26 y_27 y_28 y_29 y_30 y_31 y_32 y_33
 y_34 y_35 y_36 y_37 y_38 y_39 y_40 y_41 y_42 y_43 y_44 y_45 y_46 y_47 y_48
 y_49 y_50 x_1 x_3 x_5 x_6 x_7 x_9 x_10 x_11 x_12 x_13 x_14 x_15 x_16 x_17
 x_18 x_19 x_20 x_21 x_22 x_23 x_24 x_25 x_26 x_27 x_28 x_29 x_30 x_31 x_32
 x_33 x_34 x_35 x_36 x_37 x_38 x_39 x_40 x_41 x_42 x_43 x_44 x_45 x_46 x_47
 x_48 x_49 x_50
End
